 H  C  O  Mo
1.0
       11.8859996796         0.0000000000         0.0000000000
        0.0000000000        11.1029996872         0.0000000000
        0.0000000000         0.0000000000        27.7099990845
   H    C   O     Mo    
   6    3   108   36
Selective Dynamics
Direct
     0.525443971         0.552837014         0.549102008 T T T
     0.546544015         0.459066004         0.601588011 T T T
     0.444640011         0.580124021         0.603209019 T T T
     0.380910009         0.297623008         0.621336997 T T T
     0.279006988         0.418680996         0.622961998 T T T
     0.262582004         0.296640992         0.580446005 T T T
     0.482908010         0.509208024         0.580232024 T T T
     0.393397003         0.424275994         0.563217998 T T T
     0.324775994         0.355080992         0.599089026 T T T
	 0.376343995         0.411428988         0.520047009 T T T
	 0.324999988         0.083333001         0.367500007 T T T
     0.324999988         0.416667014         0.367500007 T T T 
     0.324999988         0.750000000         0.367500007 T T T
     0.658333004         0.083333001         0.367500007 T T T
     0.658333004         0.416667014         0.367500007 T T T
     0.658333004         0.750000000         0.367500007 T T T
     0.991666973         0.083333001         0.367500007 T T T
     0.991666973         0.416667014         0.367500007 T T T
     0.991666973         0.750000000         0.367500007 T T T
     0.008333000         0.250000000         0.432500005 T T T
     0.008333000         0.583333015         0.432500005 T T T
     0.008333000         0.916666985         0.432500005 T T T
     0.341666996         0.250000000         0.432500005 T T T
     0.341666996         0.583333015         0.432500005 T T T
     0.341666996         0.916666985         0.432500005 T T T
     0.675000012         0.250000000         0.432500005 T T T
     0.675000012         0.583333015         0.432500005 T T T
     0.675000012         0.916666985         0.432500005 T T T
     0.186666995         0.083333001         0.449999988 T T T
     0.186666995         0.416667014         0.449999988 T T T
     0.186666995         0.750000000         0.449999988 T T T
     0.519999981         0.083333001         0.449999988 T T T
     0.519999981         0.416667014         0.449999988 T T T
     0.519999981         0.750000000         0.449999988 T T T
     0.853332996         0.083333001         0.449999988 T T T
     0.853332996         0.416667014         0.449999988 T T T
     0.853332996         0.750000000         0.449999988 T T T
     0.146667004         0.250000000         0.349999994 T T T
     0.146667004         0.583333015         0.349999994 T T T
     0.146667004         0.916666985         0.349999994 T T T
     0.479999989         0.250000000         0.349999994 T T T
     0.479999989         0.583333015         0.349999994 T T T
     0.479999989         0.916666985         0.349999994 T T T
     0.813332975         0.250000000         0.349999994 T T T
     0.813332975         0.583333015         0.349999994 T T T
     0.813332975         0.916666985         0.349999994 T T T
     0.005000000         0.083333001         0.514999986 T T T
     0.005000000         0.416667014         0.514999986 T T T
     0.005000000         0.750000000         0.514999986 T T T
     0.338333011         0.083333001         0.514999986 T T T
     0.338333011         0.750000000         0.514999986 T T T
     0.671666980         0.083333001         0.514999986 T T T
     0.671666980         0.416667014         0.514999986 T T T
     0.671666980         0.750000000         0.514999986 T T T
     0.328332990         0.250000000         0.284999996 T T T
     0.328332990         0.583333015         0.284999996 T T T
     0.328332990         0.916666985         0.284999996 T T T
     0.661666989         0.250000000         0.284999996 T T T
     0.661666989         0.583333015         0.284999996 T T T
     0.661666989         0.916666985         0.284999996 T T T
     0.995000005         0.250000000         0.284999996 T T T
     0.995000005         0.583333015         0.284999996 T T T
     0.995000005         0.916666985         0.284999996 T T T
     0.174999997         0.083333001         0.117500000 F F F
     0.174999997         0.416667014         0.117500000 F F F
     0.174999997         0.750000000         0.117500000 F F F
     0.508333027         0.083333001         0.117500000 F F F
     0.508333027         0.416667014         0.117500000 F F F
     0.508333027         0.750000000         0.117500000 F F F
     0.841666996         0.083333001         0.117500000 F F F
     0.841666996         0.416667014         0.117500000 F F F
     0.841666996         0.750000000         0.117500000 F F F
     0.158333004         0.250000000         0.182500005 F F F
     0.158333004         0.583333015         0.182500005 F F F
     0.158333004         0.916666985         0.182500005 F F F
     0.491667002         0.250000000         0.182500005 F F F
     0.491667002         0.583333015         0.182500005 F F F
     0.491667002         0.916666985         0.182500005 F F F
     0.824999988         0.250000000         0.182500005 F F F
     0.824999988         0.583333015         0.182500005 F F F
     0.824999988         0.916666985         0.182500005 F F F
     0.313333005         0.083333001         0.200000003 F F F
     0.313333005         0.416667014         0.200000003 F F F
     0.313333005         0.750000000         0.200000003 F F F
     0.646667004         0.083333001         0.200000003 F F F
     0.646667004         0.416667014         0.200000003 F F F
     0.646667004         0.750000000         0.200000003 F F F
     0.980000019         0.083333001         0.200000003 F F F
     0.980000019         0.416667014         0.200000003 F F F
     0.980000019         0.750000000         0.200000003 F F F
     0.020000000         0.250000000         0.100000001 F F F
     0.020000000         0.583333015         0.100000001 F F F
     0.020000000         0.916666985         0.100000001 F F F
     0.353332996         0.250000000         0.100000001 F F F
     0.353332996         0.583333015         0.100000001 F F F
     0.353332996         0.916666985         0.100000001 F F F
     0.686667025         0.250000000         0.100000001 F F F
     0.686667025         0.583333015         0.100000001 F F F
     0.686667025         0.916666985         0.100000001 F F F
     0.161667004         0.083333001         0.264999986 F F F
     0.161667004         0.416667014         0.264999986 F F F
     0.161667004         0.750000000         0.264999986 F F F
     0.495000005         0.083333001         0.264999986 F F F
     0.495000005         0.416667014         0.264999986 F F F
     0.495000005         0.750000000         0.264999986 F F F
     0.828333020         0.083333001         0.264999986 F F F
     0.828333020         0.416667014         0.264999986 F F F
     0.828333020         0.750000000         0.264999986 F F F
     0.171666995         0.250000000         0.035000000 F F F
     0.171666995         0.583333015         0.035000000 F F F
     0.171666995         0.916666985         0.035000000 F F F
     0.504999995         0.250000000         0.035000000 F F F
     0.504999995         0.583333015         0.035000000 F F F
     0.504999995         0.916666985         0.035000000 F F F
     0.838333011         0.250000000         0.035000000 F F F
     0.838333011         0.583333015         0.035000000 F F F
     0.838333011         0.916666985         0.035000000 F F F
     0.028232999         0.083333001         0.449900001 T T T
     0.028232999         0.416667014         0.449900001 T T T
     0.028232999         0.750000000         0.449900001 T T T
     0.361566991         0.083333001         0.449900001 T T T
     0.361566991         0.416667014         0.449900001 T T T
     0.361566991         0.750000000         0.449900001 T T T
     0.694899976         0.083333001         0.449900001 T T T
     0.694899976         0.416667014         0.449900001 T T T
     0.694899976         0.750000000         0.449900001 T T T
     0.305099994         0.250000000         0.350100011 T T T
     0.305099994         0.583333015         0.350100011 T T T
     0.305099994         0.916666985         0.350100011 T T T
     0.638432980         0.250000000         0.350100011 T T T
     0.638432980         0.583333015         0.350100011 T T T
     0.638432980         0.916666985         0.350100011 T T T
     0.971767008         0.250000000         0.350100011 T T T
     0.971767008         0.583333015         0.350100011 T T T
     0.971767008         0.916666985         0.350100011 T T T
     0.138432994         0.083333001         0.199900001 F F F
     0.138432994         0.416667014         0.199900001 F F F
     0.138432994         0.750000000         0.199900001 F F F
     0.471767008         0.083333001         0.199900001 F F F
     0.471767008         0.416667014         0.199900001 F F F
     0.471767008         0.750000000         0.199900001 F F F
     0.805100024         0.083333001         0.199900001 F F F
     0.805100024         0.416667014         0.199900001 F F F
     0.805100024         0.750000000         0.199900001 F F F
     0.194900006         0.250000000         0.100100003 F F F
     0.194900006         0.583333015         0.100100003 F F F
     0.194900006         0.916666985         0.100100003 F F F
     0.528232992         0.250000000         0.100100003 F F F
     0.528232992         0.583333015         0.100100003 F F F
     0.528232992         0.916666985         0.100100003 F F F
     0.861567020         0.250000000         0.100100003 F F F
     0.861567020         0.583333015         0.100100003 F F F
     0.861567020         0.916666985         0.100100003 F F F
